instances_old/A-n7-k2-m0-b2ampl_.txt
set K:= 1	2;
set C_H:= 1	2;
set C_S:= 3	4;
set C_F:= 5	6;
set M:= 7	8	9	10	11	12;
set L_B:= 13	14;
set A1:=
(0,*) 1 2 5 6 7 8 9 10 11 12 13 14 15
(1,*) 0 2 5 6 7 8 9 10 11 12 13 14 15
(2,*) 0 1 5 6 7 8 9 10 11 12 13 14 15
(5,*) 0 1 2 6 7 8 9 10 11 12 13 14 15
(6,*) 0 1 2 5 7 8 9 10 11 12 13 14 15
(7,*) 0 1 2 5 6 8 9 10 11 12 13 14 15
(8,*) 0 1 2 5 6 7 9 10 11 12 13 14 15
(9,*) 0 1 2 5 6 7 8 10 11 12 13 14 15
(10,*) 0 1 2 5 6 7 8 9 11 12 13 14 15
(11,*) 0 1 2 5 6 7 8 9 10 12 13 14 15
(12,*) 0 1 2 5 6 7 8 9 10 11 13 14 15
(13,*) 0 1 2 5 6 7 8 9 10 11 12 14 15
(14,*) 0 1 2 5 6 7 8 9 10 11 12 13 15
(15,*) 0 1 2 5 6 7 8 9 10 11 12 13 14
;
set A2:=
;
param BigM:=99999;
param n:= 2;
param d:=
1	6
2	14
3	8
4	16
5	8
6	3
;
param Q:=100;
param e:
	7	8	9	10	11	12	13	14:=
3		0		1		0		0		0		0		0		0	
4		0		0		0		0		0		1		0		0	
5		0		0		0		1		0		0		0		0	
6		0		0		0		0		0		0		1		0	
;
param p:=
1	1
2	1
;
param G:=
7	87
8	100
9	74
10	100
11	76
12	87
13	97
14	83
;
param s:=
0	0
1	10
2	10
5	10
6	10
7	10
8	10
9	10
10	10
11	10
12	10
13	10
14	10
;
param t:
	0	1	2	3	4	5	6	7	8	9	10	11	12	13	14	15:=
0	0.0	85.6	101.41	78.03	37.05	79.23	27.02	20.81	83.49	64.94	61.19	13.0	62.8	52.35	57.49	0.0
1	85.6	0.0	16.64	31.76	71.59	59.03	58.6	81.84	14.21	79.91	64.5	89.81	58.86	34.0	40.8	85.6
2	101.41	16.64	0.0	37.01	84.15	72.03	74.41	98.41	20.62	88.02	79.83	106.15	67.12	49.2	57.01	101.41
3	78.03	31.76	37.01	0.0	51.61	82.76	53.49	82.28	18.03	51.09	81.49	86.41	30.41	31.06	56.32	78.03
4	37.05	71.59	84.15	51.61	0.0	91.71	30.48	52.55	63.69	28.46	79.03	49.5	27.73	40.01	62.77	37.05
5	79.23	59.03	72.03	82.76	91.71	0.0	62.39	62.29	70.52	114.02	19.92	74.24	96.88	58.69	29.83	79.23
6	27.02	58.6	74.41	53.49	30.48	62.39	0.0	29.27	56.85	56.86	48.6	33.12	46.32	25.5	35.23	27.02
7	20.81	81.84	98.41	82.28	52.55	62.29	29.27	0.0	83.24	80.99	43.0	12.0	74.33	52.39	46.32	20.81
8	83.49	14.21	20.62	18.03	63.69	70.52	56.85	83.24	0.0	68.07	73.06	89.63	47.01	31.4	48.01	83.49
9	64.94	79.91	88.02	51.09	28.46	114.02	56.86	80.99	68.07	0.0	104.0	77.67	21.1	56.44	84.2	64.94
10	61.19	64.5	79.83	81.49	79.03	19.92	48.6	43.0	73.06	104.0	0.0	55.0	89.31	52.8	25.32	61.19
11	13.0	89.81	106.15	86.41	49.5	74.24	33.12	12.0	89.63	77.67	55.0	0.0	74.17	58.25	56.8	13.0
12	62.8	58.86	67.12	30.41	27.73	96.88	46.32	74.33	47.01	21.1	89.31	74.17	0.0	38.21	67.21	62.8
13	52.35	34.0	49.2	31.06	40.01	58.69	25.5	52.39	31.4	56.44	52.8	58.25	38.21	0.0	29.21	52.35
14	57.49	40.8	57.01	56.32	62.77	29.83	35.23	46.32	48.01	84.2	25.32	56.8	67.21	29.21	0.0	57.49
;
